15 None
25
2 11 0 0
3 2 2 0
7 10 5 0
4 8 2 10
5 9 6 10
2 7 12 0
1 4 14 0
1 6 14 4
5 4 0 18
3 8 11 10
3 1 5 19
5 5 8 19
1 3 14 10
4 12 0 22
2 6 13 18
4 2 4 22
4 11 4 24
2 10 8 24
2 3 10 24
2 11 12 24
4 3 0 34
4 26 8 34
4 8 4 35
2 3 12 35
2 6 0 37

301
True